Traveling Salesman Problem/TSP_generados/Aleatorio1621103631_16.tsp
NAME: Aleatorio1621103631_16.tsp
COMMENT: Randomly generated scenario
TYPE: TSP
DIMENSION: 16
EDGE_WEIGHT_TYPE: ATT
NODE_COORD_SECTION
1 49.6 27.97
2 29.66 13.23
3 1.84 44.06
4 38.57 46.13
5 38.37 6.11
6 36.84 13.78
7 45.21 1.79
8 35.08 4.69
9 40.54 46.02
10 10.78 2.9
11 0.62 20.59
12 21.67 6.84
13 36.87 4.52
14 36.98 17.1
15 32.07 0.3
16 9.04 7.64
