Traveling Salesman Problem/TSP_generados/Aleatorio1621103631_16.opt.tour
NAME: Aleatorio1621103631_16.opt.tour
COMMENT: Optimal solution for Aleatorio1621103631_16 (189.23748247561178)
TYPE: TOUR
DIMENSION: 16
TOUR_SECTION
1 14 6 2 5 7 13 8 15 12 10 16 11 3 4 9
-1
EOF
